(set-logic HORN)

(declare-datatype Nat ((Z) (S (nextnat Nat))))
(declare-datatype Tree ((leaf) (node (trn1 Nat) (ltree Tree) (rtree Tree))))
(declare-datatype Lst ((nil) (cons (car Nat) (cdr Lst))))
(declare-datatype Lst2 ((nil2) (cons2 (car1 Nat) (car2 Nat) (cdr2 Lst2))))
(declare-datatype Queue ((queue (queue1 Lst) (queue2 Lst))))


(declare-fun add (Nat Nat Nat) Bool)
(declare-fun lt (Nat Nat) Bool)
(declare-fun le (Nat Nat) Bool)
(declare-fun gt (Nat Nat) Bool)
(declare-fun ge (Nat Nat) Bool)
(assert (forall ((y Nat)) (add Z y y)))
(assert (forall ((x Nat) (y Nat) (z Nat)) (=> (add x y z) (add (S x) y (S z)))))
(assert (forall ((y Nat)) (lt Z (S y))))
(assert (forall ((x Nat) (y Nat)) (=> (lt x y) (lt (S x) (S y)))))
(assert (forall ((x Nat) (y Nat)) (=> (or (lt x y) (= x y)) (le x y))))
(assert (forall ((x Nat)) (gt (S x) Z)))
(assert (forall ((x Nat) (y Nat)) (=> (gt x y) (gt (S x) (S y)))))
(assert (forall ((x Nat) (y Nat)) (=> (or (gt x y) (= x y)) (ge x y))))

(declare-fun minleafdepth (Tree Nat) Bool)
(declare-fun incorrect () Bool)
(declare-fun min (Nat Nat Nat) Bool)
(declare-fun leftdrop (Nat Tree Tree) Bool)
(assert (forall ((A Nat) (B Nat)) (=> (le B A) (min B A B))))
(assert (forall ((A Nat) (B Nat)) (=> (lt B A) (min A B B))))
(assert (forall ((A Tree) (B Nat))
  (=> (and (= B Z) (= A leaf)) (minleafdepth A B))))
(assert (forall ((A Nat)
         (B Nat)
         (C Tree)
         (D Nat)
         (E Tree)
         (F Nat)
         (G Tree)
         (H Nat))
  (=> (and (minleafdepth E F)
           (min D F B)
           (minleafdepth C D)
           (= G (node A C E))
           (= H (S B)))
      (minleafdepth G H))))
(assert (forall ((A Nat) (B Tree) (C Tree))
  (=> (and (= C leaf) (= B leaf)) (leftdrop A B C))))
(assert (forall ((A Nat)
         (B Tree)
         (C Tree)
         (D Nat)
         (E Tree)
         (F Tree))
  (=> (and (= E (node A B C)) (= D Z) (= F (node A B C))) (leftdrop D E F))))
(assert (forall ((A Nat)
         (B Tree)
         (C Nat)
         (D Tree)
         (E Nat)
         (F Tree)
         (G Tree))
  (=> (and (leftdrop C D G) (= F (node A D B)) (= E (S C)))
      (leftdrop E F G))))
(assert (forall ((A Nat) (B Tree) (C Nat) (D Tree) (E Nat) (CA Nat))
  (=> (and (minleafdepth D E)
           (leftdrop A D B)
           (minleafdepth B C)
		   (add (S C) A CA)
           (= CA E))
      incorrect)))
(assert (=> incorrect false))
(check-sat)

